p edge 75 833
e 1 8
e 1 9
e 1 12
e 1 16
e 1 18
e 1 20
e 1 21
e 1 23
e 1 26
e 1 27
e 1 35
e 1 38
e 1 46
e 1 48
e 1 53
e 1 54
e 1 55
e 1 56
e 1 60
e 1 62
e 1 63
e 1 64
e 1 70
e 1 71
e 1 74
e 2 3
e 2 6
e 2 9
e 2 10
e 2 13
e 2 14
e 2 16
e 2 18
e 2 24
e 2 25
e 2 29
e 2 35
e 2 42
e 2 46
e 2 62
e 2 69
e 2 71
e 2 72
e 3 7
e 3 8
e 3 14
e 3 15
e 3 20
e 3 24
e 3 28
e 3 30
e 3 33
e 3 34
e 3 35
e 3 36
e 3 45
e 3 49
e 3 53
e 3 59
e 3 61
e 3 67
e 3 71
e 3 72
e 4 5
e 4 12
e 4 13
e 4 15
e 4 18
e 4 19
e 4 24
e 4 31
e 4 35
e 4 37
e 4 40
e 4 44
e 4 45
e 4 48
e 4 50
e 4 51
e 4 53
e 4 54
e 4 55
e 4 60
e 4 61
e 4 62
e 4 65
e 4 70
e 4 73
e 5 13
e 5 15
e 5 17
e 5 22
e 5 24
e 5 25
e 5 27
e 5 28
e 5 30
e 5 32
e 5 34
e 5 39
e 5 40
e 5 42
e 5 47
e 5 50
e 5 53
e 5 54
e 5 62
e 5 63
e 5 64
e 5 65
e 5 66
e 5 67
e 5 70
e 5 71
e 5 72
e 5 73
e 6 13
e 6 22
e 6 24
e 6 27
e 6 29
e 6 32
e 6 37
e 6 39
e 6 44
e 6 48
e 6 50
e 6 57
e 6 59
e 6 60
e 6 62
e 6 63
e 6 64
e 6 69
e 6 72
e 6 74
e 7 8
e 7 16
e 7 17
e 7 20
e 7 22
e 7 24
e 7 35
e 7 36
e 7 40
e 7 50
e 7 53
e 7 58
e 7 62
e 7 63
e 7 66
e 7 68
e 8 13
e 8 14
e 8 16
e 8 29
e 8 31
e 8 33
e 8 34
e 8 37
e 8 41
e 8 43
e 8 49
e 8 50
e 8 56
e 8 57
e 8 58
e 8 59
e 8 64
e 8 73
e 9 10
e 9 12
e 9 13
e 9 17
e 9 21
e 9 29
e 9 32
e 9 35
e 9 36
e 9 43
e 9 46
e 9 47
e 9 48
e 9 50
e 9 52
e 9 53
e 9 54
e 9 60
e 9 63
e 9 67
e 9 68
e 9 73
e 9 74
e 10 11
e 10 13
e 10 20
e 10 21
e 10 23
e 10 25
e 10 26
e 10 27
e 10 30
e 10 37
e 10 43
e 10 46
e 10 49
e 10 50
e 10 55
e 10 60
e 10 61
e 10 65
e 10 71
e 10 74
e 11 21
e 11 23
e 11 25
e 11 26
e 11 27
e 11 28
e 11 29
e 11 30
e 11 34
e 11 40
e 11 43
e 11 46
e 11 50
e 11 52
e 11 56
e 11 61
e 11 63
e 11 68
e 11 74
e 12 19
e 12 23
e 12 27
e 12 28
e 12 37
e 12 38
e 12 43
e 12 45
e 12 46
e 12 50
e 12 54
e 12 57
e 12 58
e 12 59
e 12 60
e 12 62
e 12 75
e 13 14
e 13 16
e 13 22
e 13 23
e 13 26
e 13 36
e 13 39
e 13 54
e 13 55
e 13 58
e 13 59
e 13 60
e 13 61
e 13 64
e 13 65
e 13 66
e 13 74
e 14 17
e 14 19
e 14 25
e 14 32
e 14 33
e 14 34
e 14 44
e 14 47
e 14 55
e 14 56
e 14 59
e 14 60
e 14 63
e 14 65
e 14 66
e 14 67
e 14 73
e 14 75
e 15 17
e 15 20
e 15 27
e 15 29
e 15 30
e 15 31
e 15 32
e 15 37
e 15 38
e 15 41
e 15 49
e 15 51
e 15 63
e 15 66
e 15 68
e 15 70
e 15 72
e 15 73
e 16 17
e 16 19
e 16 20
e 16 21
e 16 24
e 16 28
e 16 30
e 16 36
e 16 38
e 16 40
e 16 52
e 16 59
e 16 66
e 16 67
e 16 71
e 17 18
e 17 20
e 17 24
e 17 27
e 17 29
e 17 30
e 17 45
e 17 53
e 17 59
e 17 61
e 17 63
e 17 65
e 17 69
e 17 71
e 18 20
e 18 22
e 18 25
e 18 26
e 18 34
e 18 40
e 18 42
e 18 47
e 18 51
e 18 58
e 18 59
e 18 62
e 18 64
e 18 70
e 18 74
e 19 20
e 19 23
e 19 34
e 19 37
e 19 38
e 19 43
e 19 45
e 19 46
e 19 47
e 19 53
e 19 56
e 19 57
e 19 69
e 20 24
e 20 26
e 20 29
e 20 31
e 20 34
e 20 35
e 20 37
e 20 43
e 20 45
e 20 46
e 20 58
e 20 60
e 20 61
e 20 63
e 20 65
e 20 69
e 20 74
e 21 22
e 21 23
e 21 24
e 21 25
e 21 27
e 21 29
e 21 37
e 21 43
e 21 45
e 21 51
e 21 56
e 21 59
e 21 62
e 21 63
e 21 68
e 21 73
e 21 74
e 21 75
e 22 24
e 22 31
e 22 37
e 22 41
e 22 45
e 22 49
e 22 57
e 22 60
e 22 66
e 22 71
e 22 74
e 23 32
e 23 34
e 23 35
e 23 36
e 23 40
e 23 44
e 23 45
e 23 47
e 23 49
e 23 53
e 23 56
e 23 61
e 23 62
e 23 63
e 23 66
e 23 67
e 23 68
e 23 71
e 23 72
e 23 73
e 24 26
e 24 33
e 24 35
e 24 38
e 24 39
e 24 43
e 24 54
e 24 57
e 24 60
e 24 61
e 24 65
e 24 67
e 24 69
e 24 72
e 24 74
e 25 26
e 25 27
e 25 30
e 25 33
e 25 34
e 25 35
e 25 41
e 25 42
e 25 45
e 25 48
e 25 50
e 25 51
e 25 56
e 25 62
e 25 66
e 25 67
e 25 70
e 25 72
e 25 74
e 26 30
e 26 33
e 26 34
e 26 35
e 26 36
e 26 46
e 26 49
e 26 51
e 26 52
e 26 54
e 26 58
e 26 63
e 26 67
e 26 69
e 26 70
e 26 72
e 26 73
e 26 75
e 27 30
e 27 32
e 27 35
e 27 36
e 27 39
e 27 42
e 27 43
e 27 44
e 27 45
e 27 46
e 27 47
e 27 48
e 27 50
e 27 54
e 27 58
e 27 60
e 27 61
e 27 62
e 27 66
e 27 70
e 27 71
e 27 72
e 27 73
e 27 75
e 28 31
e 28 35
e 28 36
e 28 38
e 28 40
e 28 45
e 28 46
e 28 48
e 28 59
e 28 61
e 28 64
e 28 66
e 28 71
e 28 75
e 29 33
e 29 39
e 29 43
e 29 46
e 29 50
e 29 54
e 29 56
e 29 57
e 29 58
e 29 60
e 29 62
e 29 64
e 29 68
e 29 72
e 29 75
e 30 33
e 30 37
e 30 41
e 30 44
e 30 54
e 30 55
e 30 66
e 30 68
e 30 70
e 30 71
e 30 73
e 30 75
e 31 34
e 31 38
e 31 41
e 31 44
e 31 45
e 31 49
e 31 52
e 31 53
e 31 54
e 31 58
e 32 43
e 32 44
e 32 45
e 32 48
e 32 50
e 32 52
e 32 58
e 32 63
e 32 66
e 32 69
e 32 70
e 32 72
e 32 75
e 33 37
e 33 40
e 33 41
e 33 43
e 33 44
e 33 47
e 33 49
e 33 53
e 33 54
e 33 56
e 33 57
e 33 62
e 33 67
e 33 68
e 33 71
e 33 73
e 33 74
e 33 75
e 34 40
e 34 42
e 34 43
e 34 45
e 34 47
e 34 50
e 34 58
e 34 61
e 34 64
e 34 65
e 34 68
e 34 70
e 34 74
e 35 41
e 35 46
e 35 47
e 35 48
e 35 49
e 35 50
e 35 51
e 35 55
e 35 56
e 35 57
e 35 59
e 35 61
e 35 62
e 35 65
e 35 67
e 35 70
e 35 71
e 36 37
e 36 40
e 36 41
e 36 42
e 36 47
e 36 49
e 36 51
e 36 54
e 36 57
e 36 62
e 36 64
e 36 65
e 36 66
e 36 69
e 36 71
e 36 75
e 37 38
e 37 46
e 37 51
e 37 57
e 37 59
e 37 61
e 37 67
e 37 74
e 38 40
e 38 42
e 38 47
e 38 52
e 38 54
e 38 55
e 38 56
e 38 60
e 38 61
e 38 67
e 38 71
e 38 75
e 39 41
e 39 42
e 39 45
e 39 47
e 39 49
e 39 52
e 39 53
e 39 57
e 39 65
e 39 66
e 40 41
e 40 42
e 40 43
e 40 44
e 40 49
e 40 52
e 40 56
e 40 57
e 40 61
e 40 66
e 40 73
e 41 42
e 41 44
e 41 46
e 41 49
e 41 54
e 41 62
e 41 63
e 41 65
e 41 72
e 42 47
e 42 55
e 42 58
e 42 62
e 42 66
e 42 70
e 42 71
e 42 72
e 42 73
e 43 44
e 43 47
e 43 48
e 43 49
e 43 51
e 43 54
e 43 63
e 43 68
e 43 71
e 43 73
e 43 74
e 44 46
e 44 47
e 44 52
e 44 53
e 44 54
e 44 56
e 44 58
e 44 61
e 44 68
e 44 71
e 44 73
e 45 49
e 45 50
e 45 51
e 45 54
e 45 55
e 45 65
e 45 67
e 45 71
e 45 72
e 45 73
e 46 48
e 46 49
e 46 51
e 46 58
e 46 60
e 46 63
e 46 73
e 46 75
e 47 54
e 47 55
e 47 68
e 47 69
e 47 71
e 48 49
e 48 51
e 48 53
e 48 55
e 48 56
e 48 58
e 48 60
e 48 65
e 48 66
e 49 51
e 49 54
e 49 56
e 49 59
e 49 64
e 49 67
e 49 71
e 49 72
e 50 55
e 50 59
e 50 62
e 50 63
e 50 64
e 50 69
e 50 70
e 50 74
e 51 56
e 51 63
e 51 65
e 51 75
e 52 55
e 52 73
e 52 74
e 52 75
e 53 54
e 53 55
e 53 58
e 53 61
e 53 64
e 53 66
e 53 67
e 53 69
e 53 73
e 53 75
e 54 55
e 54 57
e 54 66
e 54 71
e 55 56
e 55 60
e 55 63
e 55 64
e 55 68
e 55 71
e 55 74
e 56 57
e 56 58
e 56 62
e 56 64
e 56 68
e 56 70
e 57 67
e 57 74
e 58 61
e 58 64
e 58 65
e 58 70
e 58 71
e 58 72
e 59 60
e 59 66
e 59 67
e 59 73
e 59 74
e 59 75
e 60 69
e 60 71
e 60 75
e 61 63
e 61 75
e 62 71
e 62 72
e 62 74
e 63 66
e 63 73
e 63 74
e 63 75
e 65 68
e 65 75
e 66 68
e 66 73
e 67 75
e 68 69
e 69 70
e 69 71
e 69 72
e 69 74
e 69 75
e 70 75
e 71 73
e 73 74
